local_stuff/sygus_stuff/sygus_inv_oai/sygus_cvc5/cvc_output_2_5min/91_conf1.out
STDOUT:
(
(define-fun inv-f ((conf_0 Int) (x Int) (y Int) (conf_0_0 Int) (conf_0_1 Int) (conf_0_2 Int) (x_0 Int) (x_1 Int) (y_0 Int) (y_1 Int) (y_2 Int) (y_3 Int)) Bool (and (= y 0) (= x 0) (or (not (= conf_0 conf_0_1)) (>= y_2 0) (not (= y_2 0)) (not (= x_1 0)))))
)
